42123 37248 
41857 37637 
42052 37362 
41694 37831 
41914 37598 
41786 37751 
41428 38220 
41623 37945 
41264 38412 
41357 38334 
40652 39058 
40887 38808 
40723 39000 
40516 39138 
40109 39447 
40365 39199 
39877 39651 
40346 39218 
40210 39298 
40262 39247 
41036 38641 
40548 39093 
38416 40601 
39198 40089 
38876 40308 
37690 41011 
38226 40694 
39485 39992 
39314 40022 
38785 40379 
38191 40733 
38660 40563 
38058 40850 
37652 41042 
38444 40591 
39261 40027 
39250 40038 
39652 39820 
39567 39867 
38992 40241 
39148 40111 
38844 40311 
36998 41184 
37417 41054 
39226 40079 
39774 39729 
36763 41196 
36493 41305 
35708 41359 
36614 41273 
36258 41317 
34525 41382 
